param Riesgos:=
0[1]	1		4	
1[1]
2[1]	4	
3[1]	1		2	
4[1]
5[1]	1		2		3	
6[1]	1		4		6	
7[1]	5		6	
8[1]
9[1]	1		2		4	
10[1]	1		3	
11[1]	3		6	
12[1]
13[1]
14[1]	1		3	
0[2]
1[2]	2	
2[2]	6	
3[2]
0[3]	4		5	
1[3]	1		2	
2[3]
3[3]	5		6	
4[3]	2	
5[3]	2		3		6	
6[3]	5		6	
7[3]	1		3		5	
8[3]
9[3]	1		3	
10[3]	1		3	
